data;
param nombreJob := 6;
param nombreRessource := 3;
param duree := 1 5 2 7 3 9 4 4 5 8 6 1;
param capaciteRessource := 1 4 2 13 3 13;
param besoinRessource : 1 2 3 :=
                    1   4 1 5
                    2   4 1 2
                    3   2 1 1
                    4   3 3 5
                    5   1 8 1
                    6   1 7 8;
end;

